p edge 150 4470
e 1 2
e 1 3
e 1 5
e 1 6
e 1 8
e 1 9
e 1 10
e 1 11
e 1 12
e 1 16
e 1 17
e 1 19
e 1 20
e 1 25
e 1 30
e 1 33
e 1 34
e 1 35
e 1 37
e 1 41
e 1 48
e 1 57
e 1 60
e 1 63
e 1 66
e 1 67
e 1 69
e 1 71
e 1 72
e 1 73
e 1 75
e 1 76
e 1 79
e 1 80
e 1 81
e 1 86
e 1 87
e 1 96
e 1 99
e 1 101
e 1 102
e 1 106
e 1 107
e 1 108
e 1 109
e 1 110
e 1 113
e 1 115
e 1 118
e 1 119
e 1 122
e 1 123
e 1 127
e 1 128
e 1 131
e 1 134
e 1 137
e 1 138
e 1 139
e 1 141
e 1 143
e 1 144
e 1 145
e 1 146
e 1 147
e 1 149
e 2 8
e 2 9
e 2 11
e 2 12
e 2 13
e 2 14
e 2 17
e 2 24
e 2 25
e 2 28
e 2 31
e 2 32
e 2 33
e 2 34
e 2 36
e 2 38
e 2 39
e 2 40
e 2 43
e 2 45
e 2 46
e 2 48
e 2 49
e 2 51
e 2 52
e 2 55
e 2 57
e 2 60
e 2 62
e 2 72
e 2 75
e 2 77
e 2 78
e 2 79
e 2 81
e 2 92
e 2 93
e 2 96
e 2 98
e 2 99
e 2 103
e 2 104
e 2 105
e 2 106
e 2 108
e 2 109
e 2 113
e 2 117
e 2 118
e 2 120
e 2 121
e 2 122
e 2 128
e 2 133
e 2 134
e 2 135
e 2 136
e 2 137
e 2 138
e 2 139
e 2 140
e 2 141
e 2 145
e 2 147
e 2 149
e 3 5
e 3 6
e 3 7
e 3 9
e 3 10
e 3 11
e 3 12
e 3 14
e 3 16
e 3 23
e 3 26
e 3 27
e 3 31
e 3 32
e 3 33
e 3 35
e 3 38
e 3 48
e 3 50
e 3 54
e 3 56
e 3 63
e 3 64
e 3 65
e 3 66
e 3 67
e 3 70
e 3 72
e 3 77
e 3 78
e 3 82
e 3 84
e 3 91
e 3 96
e 3 98
e 3 99
e 3 100
e 3 107
e 3 109
e 3 114
e 3 116
e 3 120
e 3 121
e 3 125
e 3 126
e 3 129
e 3 130
e 3 131
e 3 135
e 3 136
e 3 138
e 3 141
e 3 145
e 3 146
e 3 147
e 3 148
e 4 6
e 4 7
e 4 8
e 4 9
e 4 12
e 4 13
e 4 15
e 4 24
e 4 26
e 4 28
e 4 30
e 4 31
e 4 33
e 4 38
e 4 41
e 4 46
e 4 48
e 4 51
e 4 52
e 4 53
e 4 55
e 4 59
e 4 62
e 4 63
e 4 65
e 4 69
e 4 74
e 4 78
e 4 79
e 4 81
e 4 88
e 4 89
e 4 90
e 4 91
e 4 92
e 4 97
e 4 98
e 4 99
e 4 102
e 4 103
e 4 114
e 4 115
e 4 117
e 4 119
e 4 122
e 4 123
e 4 129
e 4 138
e 4 141
e 4 148
e 4 149
e 4 150
e 5 7
e 5 11
e 5 12
e 5 13
e 5 18
e 5 21
e 5 22
e 5 28
e 5 29
e 5 30
e 5 31
e 5 36
e 5 37
e 5 39
e 5 40
e 5 41
e 5 42
e 5 43
e 5 44
e 5 45
e 5 47
e 5 48
e 5 50
e 5 51
e 5 52
e 5 57
e 5 59
e 5 61
e 5 62
e 5 64
e 5 65
e 5 71
e 5 73
e 5 74
e 5 78
e 5 80
e 5 82
e 5 83
e 5 86
e 5 89
e 5 93
e 5 96
e 5 97
e 5 98
e 5 100
e 5 104
e 5 111
e 5 112
e 5 115
e 5 117
e 5 119
e 5 122
e 5 123
e 5 129
e 5 131
e 5 134
e 5 136
e 5 138
e 5 143
e 5 144
e 5 145
e 5 147
e 5 148
e 5 149
e 5 150
e 6 7
e 6 10
e 6 12
e 6 13
e 6 14
e 6 17
e 6 18
e 6 19
e 6 22
e 6 26
e 6 29
e 6 36
e 6 37
e 6 39
e 6 43
e 6 48
e 6 49
e 6 50
e 6 51
e 6 53
e 6 54
e 6 59
e 6 64
e 6 65
e 6 66
e 6 68
e 6 71
e 6 72
e 6 81
e 6 82
e 6 87
e 6 90
e 6 91
e 6 92
e 6 93
e 6 94
e 6 97
e 6 98
e 6 99
e 6 102
e 6 106
e 6 110
e 6 111
e 6 112
e 6 113
e 6 115
e 6 120
e 6 123
e 6 124
e 6 129
e 6 130
e 6 132
e 6 133
e 6 134
e 6 135
e 6 137
e 6 139
e 6 140
e 6 141
e 6 146
e 6 147
e 6 150
e 7 8
e 7 10
e 7 15
e 7 19
e 7 23
e 7 24
e 7 26
e 7 27
e 7 30
e 7 34
e 7 35
e 7 40
e 7 44
e 7 46
e 7 47
e 7 49
e 7 51
e 7 52
e 7 53
e 7 54
e 7 56
e 7 60
e 7 62
e 7 63
e 7 64
e 7 65
e 7 67
e 7 68
e 7 70
e 7 71
e 7 74
e 7 75
e 7 85
e 7 86
e 7 89
e 7 91
e 7 97
e 7 99
e 7 106
e 7 114
e 7 116
e 7 120
e 7 121
e 7 122
e 7 126
e 7 129
e 7 131
e 7 134
e 7 135
e 7 136
e 7 140
e 7 146
e 7 148
e 8 9
e 8 10
e 8 11
e 8 12
e 8 13
e 8 14
e 8 15
e 8 16
e 8 23
e 8 30
e 8 31
e 8 32
e 8 34
e 8 42
e 8 43
e 8 44
e 8 46
e 8 48
e 8 50
e 8 52
e 8 56
e 8 57
e 8 58
e 8 61
e 8 62
e 8 66
e 8 69
e 8 70
e 8 71
e 8 73
e 8 74
e 8 76
e 8 80
e 8 81
e 8 87
e 8 88
e 8 89
e 8 90
e 8 94
e 8 100
e 8 101
e 8 102
e 8 108
e 8 109
e 8 115
e 8 117
e 8 124
e 8 126
e 8 127
e 8 131
e 8 132
e 8 133
e 8 134
e 8 135
e 8 136
e 8 138
e 8 139
e 8 142
e 8 143
e 8 144
e 8 147
e 8 148
e 8 150
e 9 13
e 9 14
e 9 18
e 9 22
e 9 24
e 9 27
e 9 29
e 9 36
e 9 39
e 9 44
e 9 45
e 9 48
e 9 49
e 9 51
e 9 53
e 9 56
e 9 58
e 9 59
e 9 61
e 9 62
e 9 64
e 9 65
e 9 67
e 9 68
e 9 77
e 9 78
e 9 79
e 9 82
e 9 91
e 9 94
e 9 95
e 9 99
e 9 104
e 9 105
e 9 107
e 9 108
e 9 110
e 9 112
e 9 116
e 9 117
e 9 120
e 9 121
e 9 123
e 9 127
e 9 130
e 9 131
e 9 132
e 9 136
e 9 139
e 9 141
e 9 145
e 9 148
e 10 17
e 10 19
e 10 20
e 10 24
e 10 28
e 10 31
e 10 32
e 10 34
e 10 35
e 10 37
e 10 38
e 10 39
e 10 43
e 10 44
e 10 47
e 10 51
e 10 53
e 10 54
e 10 56
e 10 58
e 10 60
e 10 63
e 10 64
e 10 69
e 10 76
e 10 77
e 10 78
e 10 79
e 10 83
e 10 85
e 10 87
e 10 90
e 10 91
e 10 96
e 10 97
e 10 99
e 10 100
e 10 101
e 10 103
e 10 104
e 10 105
e 10 106
e 10 108
e 10 116
e 10 117
e 10 122
e 10 123
e 10 128
e 10 131
e 10 133
e 10 134
e 10 136
e 10 140
e 10 142
e 10 146
e 10 147
e 11 13
e 11 18
e 11 21
e 11 22
e 11 24
e 11 26
e 11 27
e 11 28
e 11 30
e 11 31
e 11 32
e 11 34
e 11 40
e 11 43
e 11 48
e 11 56
e 11 57
e 11 58
e 11 60
e 11 61
e 11 62
e 11 68
e 11 69
e 11 74
e 11 75
e 11 76
e 11 78
e 11 80
e 11 83
e 11 88
e 11 91
e 11 93
e 11 97
e 11 98
e 11 100
e 11 101
e 11 103
e 11 110
e 11 114
e 11 116
e 11 123
e 11 124
e 11 126
e 11 128
e 11 133
e 11 135
e 11 142
e 11 145
e 11 146
e 11 148
e 12 13
e 12 14
e 12 17
e 12 22
e 12 29
e 12 30
e 12 32
e 12 33
e 12 35
e 12 37
e 12 38
e 12 39
e 12 41
e 12 42
e 12 43
e 12 44
e 12 46
e 12 48
e 12 50
e 12 51
e 12 57
e 12 58
e 12 61
e 12 65
e 12 66
e 12 67
e 12 68
e 12 70
e 12 72
e 12 73
e 12 74
e 12 75
e 12 77
e 12 79
e 12 81
e 12 82
e 12 89
e 12 91
e 12 92
e 12 93
e 12 94
e 12 96
e 12 97
e 12 99
e 12 102
e 12 104
e 12 108
e 12 110
e 12 112
e 12 113
e 12 115
e 12 116
e 12 118
e 12 121
e 12 125
e 12 126
e 12 127
e 12 130
e 12 131
e 12 133
e 12 138
e 12 145
e 12 146
e 12 147
e 12 150
e 13 17
e 13 24
e 13 29
e 13 31
e 13 38
e 13 42
e 13 44
e 13 46
e 13 48
e 13 52
e 13 53
e 13 56
e 13 58
e 13 59
e 13 62
e 13 63
e 13 64
e 13 65
e 13 66
e 13 67
e 13 69
e 13 70
e 13 73
e 13 75
e 13 76
e 13 78
e 13 80
e 13 82
e 13 86
e 13 87
e 13 88
e 13 91
e 13 93
e 13 100
e 13 101
e 13 105
e 13 106
e 13 109
e 13 110
e 13 111
e 13 113
e 13 115
e 13 116
e 13 117
e 13 118
e 13 119
e 13 126
e 13 131
e 13 134
e 13 137
e 13 138
e 13 139
e 13 146
e 13 150
e 14 18
e 14 21
e 14 22
e 14 25
e 14 26
e 14 27
e 14 28
e 14 31
e 14 42
e 14 43
e 14 47
e 14 48
e 14 50
e 14 53
e 14 56
e 14 59
e 14 61
e 14 65
e 14 69
e 14 71
e 14 74
e 14 75
e 14 76
e 14 78
e 14 80
e 14 85
e 14 87
e 14 93
e 14 97
e 14 99
e 14 104
e 14 106
e 14 109
e 14 111
e 14 114
e 14 117
e 14 125
e 14 126
e 14 127
e 14 128
e 14 129
e 14 131
e 14 134
e 14 135
e 14 137
e 14 139
e 14 140
e 14 141
e 14 142
e 14 145
e 14 148
e 15 17
e 15 20
e 15 23
e 15 27
e 15 28
e 15 32
e 15 34
e 15 37
e 15 40
e 15 42
e 15 43
e 15 47
e 15 48
e 15 49
e 15 50
e 15 51
e 15 52
e 15 54
e 15 58
e 15 61
e 15 62
e 15 67
e 15 68
e 15 71
e 15 75
e 15 76
e 15 78
e 15 79
e 15 80
e 15 82
e 15 83
e 15 84
e 15 88
e 15 89
e 15 92
e 15 95
e 15 100
e 15 102
e 15 103
e 15 107
e 15 109
e 15 116
e 15 118
e 15 121
e 15 123
e 15 124
e 15 128
e 15 130
e 15 132
e 15 133
e 15 135
e 15 137
e 15 139
e 15 140
e 15 142
e 15 143
e 16 18
e 16 21
e 16 22
e 16 26
e 16 29
e 16 30
e 16 33
e 16 35
e 16 37
e 16 41
e 16 42
e 16 43
e 16 46
e 16 49
e 16 50
e 16 51
e 16 52
e 16 58
e 16 64
e 16 65
e 16 70
e 16 77
e 16 79
e 16 80
e 16 85
e 16 87
e 16 92
e 16 93
e 16 94
e 16 95
e 16 96
e 16 97
e 16 98
e 16 99
e 16 101
e 16 106
e 16 110
e 16 111
e 16 116
e 16 118
e 16 119
e 16 120
e 16 122
e 16 124
e 16 125
e 16 127
e 16 136
e 16 137
e 16 138
e 16 143
e 16 144
e 16 145
e 16 146
e 16 147
e 16 149
e 17 21
e 17 22
e 17 24
e 17 27
e 17 31
e 17 34
e 17 35
e 17 42
e 17 48
e 17 49
e 17 51
e 17 53
e 17 55
e 17 57
e 17 59
e 17 62
e 17 64
e 17 65
e 17 67
e 17 68
e 17 69
e 17 72
e 17 73
e 17 74
e 17 76
e 17 78
e 17 82
e 17 83
e 17 85
e 17 88
e 17 90
e 17 93
e 17 96
e 17 98
e 17 101
e 17 105
e 17 107
e 17 110
e 17 112
e 17 115
e 17 118
e 17 119
e 17 120
e 17 121
e 17 125
e 17 127
e 17 128
e 17 130
e 17 133
e 17 138
e 17 142
e 17 143
e 17 146
e 18 24
e 18 25
e 18 26
e 18 27
e 18 29
e 18 34
e 18 36
e 18 37
e 18 38
e 18 40
e 18 42
e 18 46
e 18 48
e 18 56
e 18 57
e 18 58
e 18 60
e 18 61
e 18 65
e 18 66
e 18 71
e 18 72
e 18 75
e 18 76
e 18 79
e 18 83
e 18 86
e 18 87
e 18 91
e 18 97
e 18 98
e 18 102
e 18 104
e 18 105
e 18 108
e 18 110
e 18 111
e 18 115
e 18 122
e 18 123
e 18 129
e 18 130
e 18 132
e 18 133
e 18 136
e 18 137
e 18 144
e 18 146
e 18 149
e 18 150
e 19 20
e 19 22
e 19 23
e 19 24
e 19 25
e 19 28
e 19 29
e 19 30
e 19 31
e 19 34
e 19 40
e 19 43
e 19 47
e 19 51
e 19 55
e 19 56
e 19 59
e 19 61
e 19 62
e 19 63
e 19 64
e 19 67
e 19 70
e 19 72
e 19 75
e 19 76
e 19 77
e 19 87
e 19 89
e 19 94
e 19 95
e 19 101
e 19 103
e 19 105
e 19 108
e 19 110
e 19 111
e 19 112
e 19 114
e 19 115
e 19 116
e 19 119
e 19 121
e 19 122
e 19 123
e 19 124
e 19 127
e 19 128
e 19 129
e 19 131
e 19 138
e 19 142
e 19 143
e 19 145
e 19 146
e 19 147
e 19 148
e 19 149
e 20 22
e 20 25
e 20 27
e 20 30
e 20 32
e 20 35
e 20 36
e 20 38
e 20 43
e 20 44
e 20 45
e 20 46
e 20 50
e 20 53
e 20 57
e 20 59
e 20 61
e 20 63
e 20 68
e 20 74
e 20 78
e 20 79
e 20 80
e 20 81
e 20 82
e 20 84
e 20 86
e 20 87
e 20 88
e 20 92
e 20 94
e 20 96
e 20 100
e 20 102
e 20 103
e 20 104
e 20 106
e 20 110
e 20 116
e 20 117
e 20 119
e 20 141
e 20 142
e 20 146
e 20 148
e 21 23
e 21 27
e 21 32
e 21 33
e 21 37
e 21 38
e 21 39
e 21 40
e 21 41
e 21 44
e 21 45
e 21 46
e 21 47
e 21 51
e 21 53
e 21 56
e 21 60
e 21 61
e 21 66
e 21 67
e 21 68
e 21 71
e 21 72
e 21 76
e 21 79
e 21 82
e 21 84
e 21 86
e 21 91
e 21 94
e 21 102
e 21 104
e 21 105
e 21 106
e 21 107
e 21 111
e 21 112
e 21 115
e 21 118
e 21 121
e 21 122
e 21 128
e 21 130
e 21 132
e 21 134
e 21 138
e 21 139
e 21 141
e 21 144
e 21 145
e 21 146
e 21 147
e 22 23
e 22 26
e 22 27
e 22 30
e 22 31
e 22 34
e 22 36
e 22 39
e 22 49
e 22 52
e 22 55
e 22 57
e 22 58
e 22 60
e 22 61
e 22 62
e 22 63
e 22 65
e 22 66
e 22 67
e 22 69
e 22 76
e 22 80
e 22 82
e 22 84
e 22 85
e 22 87
e 22 89
e 22 91
e 22 96
e 22 97
e 22 100
e 22 106
e 22 114
e 22 120
e 22 122
e 22 124
e 22 126
e 22 127
e 22 130
e 22 136
e 22 137
e 22 139
e 22 140
e 22 144
e 22 149
e 23 25
e 23 26
e 23 27
e 23 29
e 23 30
e 23 35
e 23 37
e 23 42
e 23 43
e 23 48
e 23 49
e 23 52
e 23 61
e 23 64
e 23 69
e 23 71
e 23 73
e 23 75
e 23 76
e 23 82
e 23 83
e 23 88
e 23 90
e 23 92
e 23 93
e 23 94
e 23 95
e 23 96
e 23 101
e 23 102
e 23 105
e 23 106
e 23 108
e 23 111
e 23 116
e 23 118
e 23 121
e 23 122
e 23 124
e 23 127
e 23 128
e 23 129
e 23 132
e 23 133
e 23 135
e 23 137
e 23 138
e 23 140
e 23 141
e 23 147
e 24 27
e 24 30
e 24 33
e 24 37
e 24 39
e 24 44
e 24 45
e 24 48
e 24 49
e 24 52
e 24 54
e 24 55
e 24 56
e 24 58
e 24 59
e 24 60
e 24 62
e 24 66
e 24 74
e 24 75
e 24 76
e 24 78
e 24 79
e 24 80
e 24 81
e 24 86
e 24 90
e 24 91
e 24 94
e 24 95
e 24 96
e 24 106
e 24 107
e 24 108
e 24 110
e 24 116
e 24 118
e 24 120
e 24 123
e 24 124
e 24 125
e 24 132
e 24 135
e 24 136
e 24 137
e 24 138
e 24 140
e 24 141
e 24 142
e 24 145
e 24 148
e 24 150
e 25 26
e 25 30
e 25 31
e 25 33
e 25 36
e 25 40
e 25 42
e 25 45
e 25 46
e 25 49
e 25 56
e 25 59
e 25 61
e 25 62
e 25 63
e 25 64
e 25 66
e 25 67
e 25 69
e 25 70
e 25 71
e 25 76
e 25 80
e 25 82
e 25 84
e 25 85
e 25 86
e 25 87
e 25 93
e 25 95
e 25 98
e 25 103
e 25 105
e 25 106
e 25 107
e 25 108
e 25 111
e 25 114
e 25 115
e 25 122
e 25 132
e 25 137
e 25 138
e 25 139
e 25 140
e 25 143
e 25 144
e 25 148
e 25 150
e 26 27
e 26 28
e 26 32
e 26 35
e 26 36
e 26 38
e 26 40
e 26 41
e 26 44
e 26 47
e 26 48
e 26 51
e 26 52
e 26 56
e 26 58
e 26 61
e 26 64
e 26 67
e 26 69
e 26 72
e 26 74
e 26 76
e 26 78
e 26 79
e 26 80
e 26 81
e 26 82
e 26 84
e 26 87
e 26 89
e 26 90
e 26 91
e 26 92
e 26 110
e 26 116
e 26 118
e 26 122
e 26 126
e 26 127
e 26 129
e 26 135
e 26 136
e 26 139
e 26 141
e 26 144
e 26 145
e 26 150
e 27 28
e 27 29
e 27 33
e 27 34
e 27 36
e 27 37
e 27 38
e 27 40
e 27 44
e 27 46
e 27 47
e 27 48
e 27 50
e 27 53
e 27 56
e 27 58
e 27 59
e 27 62
e 27 63
e 27 64
e 27 66
e 27 68
e 27 71
e 27 72
e 27 77
e 27 79
e 27 80
e 27 81
e 27 84
e 27 87
e 27 94
e 27 96
e 27 100
e 27 101
e 27 102
e 27 103
e 27 104
e 27 108
e 27 110
e 27 112
e 27 113
e 27 115
e 27 116
e 27 117
e 27 118
e 27 119
e 27 123
e 27 125
e 27 126
e 27 128
e 27 130
e 27 134
e 27 139
e 27 143
e 27 144
e 27 145
e 27 150
e 28 30
e 28 34
e 28 36
e 28 37
e 28 38
e 28 40
e 28 41
e 28 44
e 28 45
e 28 46
e 28 49
e 28 50
e 28 54
e 28 55
e 28 59
e 28 61
e 28 63
e 28 64
e 28 66
e 28 67
e 28 68
e 28 71
e 28 72
e 28 74
e 28 75
e 28 77
e 28 79
e 28 80
e 28 82
e 28 83
e 28 84
e 28 88
e 28 90
e 28 93
e 28 96
e 28 97
e 28 99
e 28 100
e 28 101
e 28 104
e 28 107
e 28 111
e 28 119
e 28 121
e 28 122
e 28 123
e 28 125
e 28 126
e 28 133
e 28 142
e 28 146
e 28 148
e 29 32
e 29 34
e 29 35
e 29 36
e 29 37
e 29 38
e 29 45
e 29 46
e 29 47
e 29 50
e 29 52
e 29 54
e 29 55
e 29 59
e 29 61
e 29 64
e 29 66
e 29 67
e 29 68
e 29 76
e 29 80
e 29 89
e 29 90
e 29 91
e 29 95
e 29 99
e 29 100
e 29 102
e 29 108
e 29 109
e 29 113
e 29 114
e 29 115
e 29 117
e 29 118
e 29 120
e 29 121
e 29 123
e 29 124
e 29 137
e 29 138
e 29 140
e 29 142
e 29 149
e 30 33
e 30 38
e 30 40
e 30 41
e 30 51
e 30 52
e 30 56
e 30 61
e 30 63
e 30 64
e 30 65
e 30 69
e 30 70
e 30 75
e 30 79
e 30 82
e 30 83
e 30 86
e 30 88
e 30 94
e 30 97
e 30 102
e 30 109
e 30 110
e 30 113
e 30 118
e 30 121
e 30 124
e 30 130
e 30 131
e 30 133
e 30 135
e 30 139
e 30 142
e 30 143
e 30 144
e 30 148
e 30 149
e 31 34
e 31 36
e 31 45
e 31 50
e 31 53
e 31 58
e 31 59
e 31 61
e 31 62
e 31 63
e 31 65
e 31 72
e 31 80
e 31 81
e 31 85
e 31 87
e 31 90
e 31 96
e 31 100
e 31 101
e 31 104
e 31 105
e 31 107
e 31 109
e 31 111
e 31 112
e 31 114
e 31 115
e 31 118
e 31 120
e 31 121
e 31 122
e 31 124
e 31 142
e 31 143
e 31 147
e 31 150
e 32 36
e 32 38
e 32 40
e 32 43
e 32 44
e 32 46
e 32 53
e 32 54
e 32 55
e 32 63
e 32 64
e 32 66
e 32 70
e 32 72
e 32 73
e 32 74
e 32 78
e 32 79
e 32 80
e 32 84
e 32 86
e 32 87
e 32 88
e 32 90
e 32 92
e 32 95
e 32 98
e 32 99
e 32 101
e 32 103
e 32 104
e 32 105
e 32 106
e 32 108
e 32 110
e 32 111
e 32 113
e 32 114
e 32 116
e 32 118
e 32 121
e 32 122
e 32 124
e 32 128
e 32 136
e 32 144
e 32 148
e 33 34
e 33 36
e 33 37
e 33 41
e 33 44
e 33 47
e 33 48
e 33 51
e 33 54
e 33 56
e 33 58
e 33 60
e 33 62
e 33 65
e 33 75
e 33 84
e 33 85
e 33 87
e 33 90
e 33 93
e 33 94
e 33 96
e 33 100
e 33 101
e 33 102
e 33 104
e 33 105
e 33 109
e 33 111
e 33 117
e 33 122
e 33 123
e 33 125
e 33 130
e 33 137
e 33 138
e 33 140
e 33 142
e 33 143
e 33 146
e 33 149
e 34 37
e 34 38
e 34 39
e 34 41
e 34 42
e 34 43
e 34 46
e 34 47
e 34 48
e 34 49
e 34 51
e 34 58
e 34 59
e 34 61
e 34 64
e 34 68
e 34 69
e 34 70
e 34 72
e 34 74
e 34 75
e 34 78
e 34 79
e 34 80
e 34 81
e 34 90
e 34 93
e 34 94
e 34 98
e 34 99
e 34 105
e 34 107
e 34 108
e 34 109
e 34 110
e 34 112
e 34 113
e 34 114
e 34 116
e 34 117
e 34 122
e 34 125
e 34 126
e 34 128
e 34 129
e 34 134
e 34 137
e 34 139
e 34 142
e 34 149
e 34 150
e 35 37
e 35 40
e 35 42
e 35 43
e 35 44
e 35 45
e 35 46
e 35 47
e 35 48
e 35 50
e 35 54
e 35 55
e 35 56
e 35 57
e 35 65
e 35 69
e 35 72
e 35 73
e 35 76
e 35 78
e 35 81
e 35 82
e 35 83
e 35 84
e 35 85
e 35 87
e 35 96
e 35 97
e 35 98
e 35 100
e 35 103
e 35 109
e 35 110
e 35 116
e 35 117
e 35 118
e 35 119
e 35 121
e 35 123
e 35 126
e 35 127
e 35 128
e 35 132
e 35 134
e 35 135
e 35 138
e 35 141
e 35 143
e 36 37
e 36 39
e 36 45
e 36 47
e 36 50
e 36 56
e 36 58
e 36 59
e 36 60
e 36 61
e 36 62
e 36 66
e 36 67
e 36 70
e 36 72
e 36 74
e 36 77
e 36 78
e 36 79
e 36 81
e 36 82
e 36 83
e 36 85
e 36 92
e 36 93
e 36 96
e 36 97
e 36 99
e 36 101
e 36 104
e 36 106
e 36 108
e 36 114
e 36 119
e 36 125
e 36 129
e 36 130
e 36 134
e 36 135
e 36 140
e 36 145
e 36 149
e 36 150
e 37 38
e 37 39
e 37 44
e 37 46
e 37 47
e 37 48
e 37 53
e 37 55
e 37 59
e 37 63
e 37 64
e 37 65
e 37 74
e 37 79
e 37 80
e 37 81
e 37 87
e 37 89
e 37 94
e 37 95
e 37 96
e 37 102
e 37 103
e 37 106
e 37 111
e 37 112
e 37 114
e 37 115
e 37 116
e 37 118
e 37 122
e 37 124
e 37 126
e 37 130
e 37 131
e 37 134
e 37 135
e 37 138
e 37 142
e 37 143
e 37 148
e 37 150
e 38 46
e 38 49
e 38 50
e 38 52
e 38 53
e 38 55
e 38 58
e 38 60
e 38 61
e 38 62
e 38 71
e 38 72
e 38 74
e 38 76
e 38 77
e 38 79
e 38 80
e 38 88
e 38 90
e 38 93
e 38 96
e 38 103
e 38 105
e 38 107
e 38 118
e 38 120
e 38 122
e 38 123
e 38 129
e 38 130
e 38 132
e 38 136
e 38 138
e 38 143
e 38 144
e 38 145
e 38 149
e 39 41
e 39 42
e 39 45
e 39 46
e 39 48
e 39 51
e 39 56
e 39 64
e 39 69
e 39 72
e 39 75
e 39 77
e 39 78
e 39 84
e 39 90
e 39 94
e 39 96
e 39 102
e 39 108
e 39 109
e 39 110
e 39 112
e 39 114
e 39 116
e 39 118
e 39 121
e 39 123
e 39 128
e 39 130
e 39 134
e 39 137
e 39 142
e 39 144
e 39 145
e 39 146
e 40 44
e 40 45
e 40 46
e 40 50
e 40 57
e 40 61
e 40 62
e 40 63
e 40 65
e 40 70
e 40 73
e 40 74
e 40 76
e 40 77
e 40 78
e 40 79
e 40 85
e 40 86
e 40 87
e 40 90
e 40 92
e 40 95
e 40 96
e 40 98
e 40 101
e 40 102
e 40 105
e 40 109
e 40 121
e 40 123
e 40 124
e 40 127
e 40 128
e 40 130
e 40 132
e 40 133
e 40 134
e 40 137
e 40 138
e 40 139
e 40 140
e 40 143
e 40 145
e 40 146
e 40 147
e 40 148
e 41 42
e 41 43
e 41 49
e 41 56
e 41 60
e 41 63
e 41 64
e 41 65
e 41 66
e 41 67
e 41 72
e 41 77
e 41 79
e 41 80
e 41 81
e 41 85
e 41 89
e 41 91
e 41 92
e 41 94
e 41 95
e 41 97
e 41 98
e 41 100
e 41 102
e 41 103
e 41 104
e 41 105
e 41 106
e 41 108
e 41 117
e 41 121
e 41 122
e 41 123
e 41 126
e 41 129
e 41 133
e 41 135
e 41 137
e 41 138
e 41 139
e 41 140
e 41 142
e 41 143
e 41 144
e 41 146
e 41 148
e 41 149
e 41 150
e 42 43
e 42 46
e 42 47
e 42 49
e 42 51
e 42 52
e 42 54
e 42 55
e 42 56
e 42 57
e 42 58
e 42 59
e 42 61
e 42 63
e 42 71
e 42 76
e 42 78
e 42 80
e 42 83
e 42 87
e 42 92
e 42 93
e 42 97
e 42 99
e 42 100
e 42 102
e 42 106
e 42 108
e 42 109
e 42 110
e 42 112
e 42 116
e 42 117
e 42 120
e 42 121
e 42 122
e 42 124
e 42 125
e 42 127
e 42 129
e 42 131
e 42 133
e 42 137
e 42 142
e 42 145
e 42 146
e 42 148
e 42 149
e 42 150
e 43 46
e 43 48
e 43 50
e 43 51
e 43 53
e 43 56
e 43 57
e 43 58
e 43 61
e 43 62
e 43 64
e 43 66
e 43 73
e 43 74
e 43 79
e 43 80
e 43 81
e 43 85
e 43 88
e 43 89
e 43 91
e 43 92
e 43 97
e 43 99
e 43 100
e 43 103
e 43 107
e 43 109
e 43 111
e 43 112
e 43 113
e 43 114
e 43 115
e 43 118
e 43 120
e 43 121
e 43 127
e 43 130
e 43 131
e 43 135
e 43 137
e 43 139
e 43 143
e 43 149
e 44 45
e 44 47
e 44 50
e 44 51
e 44 52
e 44 55
e 44 56
e 44 59
e 44 63
e 44 66
e 44 67
e 44 70
e 44 72
e 44 76
e 44 78
e 44 79
e 44 81
e 44 83
e 44 84
e 44 85
e 44 87
e 44 88
e 44 90
e 44 92
e 44 94
e 44 97
e 44 100
e 44 101
e 44 103
e 44 105
e 44 109
e 44 110
e 44 117
e 44 118
e 44 120
e 44 122
e 44 126
e 44 129
e 44 131
e 44 136
e 44 139
e 44 140
e 44 141
e 44 144
e 44 145
e 44 146
e 44 148
e 44 150
e 45 48
e 45 49
e 45 52
e 45 53
e 45 54
e 45 55
e 45 56
e 45 57
e 45 59
e 45 62
e 45 63
e 45 71
e 45 72
e 45 75
e 45 80
e 45 81
e 45 83
e 45 85
e 45 86
e 45 88
e 45 90
e 45 91
e 45 92
e 45 94
e 45 95
e 45 96
e 45 97
e 45 98
e 45 102
e 45 104
e 45 105
e 45 106
e 45 107
e 45 108
e 45 109
e 45 110
e 45 114
e 45 119
e 45 123
e 45 124
e 45 126
e 45 131
e 45 132
e 45 134
e 45 135
e 45 136
e 45 137
e 45 140
e 45 142
e 45 145
e 45 147
e 45 148
e 46 49
e 46 50
e 46 51
e 46 52
e 46 53
e 46 55
e 46 57
e 46 60
e 46 61
e 46 62
e 46 63
e 46 65
e 46 69
e 46 70
e 46 72
e 46 75
e 46 79
e 46 83
e 46 84
e 46 87
e 46 88
e 46 90
e 46 93
e 46 97
e 46 99
e 46 102
e 46 103
e 46 105
e 46 106
e 46 109
e 46 113
e 46 124
e 46 126
e 46 127
e 46 128
e 46 135
e 46 136
e 46 143
e 46 147
e 46 148
e 46 149
e 47 50
e 47 54
e 47 60
e 47 65
e 47 66
e 47 70
e 47 71
e 47 73
e 47 75
e 47 80
e 47 85
e 47 87
e 47 88
e 47 91
e 47 95
e 47 96
e 47 100
e 47 101
e 47 102
e 47 106
e 47 108
e 47 109
e 47 110
e 47 111
e 47 112
e 47 117
e 47 119
e 47 120
e 47 125
e 47 126
e 47 128
e 47 130
e 47 131
e 47 134
e 47 135
e 47 136
e 47 137
e 47 140
e 47 142
e 47 143
e 47 144
e 47 148
e 47 149
e 48 52
e 48 54
e 48 57
e 48 59
e 48 60
e 48 62
e 48 63
e 48 65
e 48 66
e 48 68
e 48 77
e 48 78
e 48 82
e 48 83
e 48 85
e 48 86
e 48 87
e 48 89
e 48 90
e 48 91
e 48 95
e 48 99
e 48 100
e 48 101
e 48 102
e 48 105
e 48 107
e 48 109
e 48 111
e 48 112
e 48 114
e 48 116
e 48 120
e 48 121
e 48 122
e 48 125
e 48 126
e 48 128
e 48 132
e 48 133
e 48 134
e 48 135
e 48 137
e 48 143
e 48 145
e 48 148
e 48 149
e 49 50
e 49 51
e 49 56
e 49 59
e 49 61
e 49 63
e 49 64
e 49 67
e 49 69
e 49 71
e 49 74
e 49 77
e 49 78
e 49 80
e 49 82
e 49 83
e 49 84
e 49 89
e 49 90
e 49 96
e 49 100
e 49 103
e 49 104
e 49 105
e 49 108
e 49 110
e 49 111
e 49 115
e 49 121
e 49 127
e 49 130
e 49 132
e 49 133
e 49 141
e 49 146
e 49 147
e 49 150
e 50 54
e 50 60
e 50 62
e 50 63
e 50 68
e 50 69
e 50 72
e 50 80
e 50 82
e 50 85
e 50 88
e 50 89
e 50 92
e 50 94
e 50 95
e 50 97
e 50 103
e 50 105
e 50 107
e 50 108
e 50 109
e 50 110
e 50 115
e 50 119
e 50 126
e 50 134
e 50 144
e 50 145
e 50 146
e 51 53
e 51 58
e 51 64
e 51 65
e 51 66
e 51 67
e 51 70
e 51 76
e 51 86
e 51 87
e 51 90
e 51 91
e 51 92
e 51 93
e 51 95
e 51 98
e 51 101
e 51 102
e 51 103
e 51 104
e 51 106
e 51 109
e 51 110
e 51 112
e 51 114
e 51 116
e 51 117
e 51 120
e 51 121
e 51 123
e 51 127
e 51 129
e 51 130
e 51 131
e 51 132
e 51 133
e 51 134
e 51 136
e 51 138
e 51 139
e 51 143
e 51 144
e 51 148
e 51 149
e 51 150
e 52 56
e 52 58
e 52 60
e 52 63
e 52 64
e 52 66
e 52 69
e 52 71
e 52 72
e 52 74
e 52 75
e 52 76
e 52 78
e 52 79
e 52 80
e 52 81
e 52 83
e 52 86
e 52 88
e 52 90
e 52 92
e 52 94
e 52 95
e 52 98
e 52 99
e 52 100
e 52 102
e 52 111
e 52 112
e 52 114
e 52 116
e 52 124
e 52 127
e 52 129
e 52 132
e 52 139
e 52 143
e 52 144
e 53 55
e 53 59
e 53 62
e 53 63
e 53 66
e 53 67
e 53 68
e 53 69
e 53 70
e 53 72
e 53 73
e 53 77
e 53 78
e 53 81
e 53 84
e 53 86
e 53 93
e 53 94
e 53 95
e 53 98
e 53 99
e 53 100
e 53 104
e 53 105
e 53 107
e 53 111
e 53 114
e 53 119
e 53 120
e 53 125
e 53 126
e 53 127
e 53 130
e 53 131
e 53 133
e 53 136
e 53 137
e 53 141
e 53 143
e 53 145
e 53 148
e 53 149
e 53 150
e 54 55
e 54 56
e 54 58
e 54 60
e 54 61
e 54 65
e 54 66
e 54 71
e 54 72
e 54 75
e 54 76
e 54 77
e 54 79
e 54 80
e 54 82
e 54 83
e 54 84
e 54 86
e 54 91
e 54 92
e 54 93
e 54 94
e 54 96
e 54 97
e 54 98
e 54 102
e 54 106
e 54 107
e 54 108
e 54 109
e 54 111
e 54 115
e 54 117
e 54 118
e 54 119
e 54 120
e 54 122
e 54 124
e 54 126
e 54 132
e 54 133
e 54 134
e 54 137
e 54 138
e 54 141
e 54 145
e 54 148
e 54 149
e 54 150
e 55 58
e 55 59
e 55 60
e 55 64
e 55 65
e 55 67
e 55 71
e 55 77
e 55 85
e 55 86
e 55 87
e 55 90
e 55 92
e 55 95
e 55 96
e 55 97
e 55 99
e 55 103
e 55 104
e 55 105
e 55 106
e 55 108
e 55 110
e 55 114
e 55 117
e 55 119
e 55 120
e 55 128
e 55 129
e 55 132
e 55 134
e 55 138
e 55 139
e 55 141
e 55 146
e 56 59
e 56 60
e 56 62
e 56 63
e 56 68
e 56 73
e 56 76
e 56 78
e 56 82
e 56 87
e 56 88
e 56 89
e 56 90
e 56 93
e 56 95
e 56 96
e 56 97
e 56 101
e 56 105
e 56 108
e 56 110
e 56 113
e 56 114
e 56 116
e 56 117
e 56 118
e 56 119
e 56 125
e 56 131
e 56 132
e 56 135
e 56 136
e 56 137
e 56 140
e 56 142
e 56 144
e 56 145
e 56 148
e 57 60
e 57 65
e 57 66
e 57 68
e 57 71
e 57 74
e 57 77
e 57 78
e 57 79
e 57 81
e 57 83
e 57 84
e 57 85
e 57 87
e 57 88
e 57 89
e 57 93
e 57 97
e 57 99
e 57 100
e 57 102
e 57 103
e 57 104
e 57 106
e 57 107
e 57 108
e 57 110
e 57 117
e 57 118
e 57 119
e 57 122
e 57 130
e 57 133
e 57 137
e 57 138
e 57 140
e 57 143
e 57 144
e 57 145
e 57 148
e 57 149
e 58 69
e 58 71
e 58 73
e 58 78
e 58 79
e 58 82
e 58 84
e 58 85
e 58 90
e 58 91
e 58 92
e 58 93
e 58 94
e 58 95
e 58 96
e 58 97
e 58 99
e 58 100
e 58 102
e 58 103
e 58 105
e 58 106
e 58 110
e 58 111
e 58 112
e 58 113
e 58 114
e 58 116
e 58 117
e 58 120
e 58 121
e 58 122
e 58 125
e 58 126
e 58 129
e 58 132
e 58 139
e 58 141
e 58 142
e 58 143
e 58 145
e 58 146
e 58 147
e 58 149
e 59 60
e 59 61
e 59 62
e 59 64
e 59 65
e 59 66
e 59 69
e 59 70
e 59 71
e 59 72
e 59 74
e 59 78
e 59 82
e 59 83
e 59 85
e 59 87
e 59 89
e 59 91
e 59 92
e 59 95
e 59 96
e 59 98
e 59 100
e 59 103
e 59 105
e 59 106
e 59 107
e 59 108
e 59 113
e 59 115
e 59 118
e 59 121
e 59 124
e 59 125
e 59 134
e 59 135
e 59 136
e 59 141
e 59 144
e 59 146
e 59 148
e 59 150
e 60 62
e 60 67
e 60 69
e 60 70
e 60 71
e 60 72
e 60 74
e 60 79
e 60 80
e 60 82
e 60 92
e 60 93
e 60 96
e 60 98
e 60 105
e 60 107
e 60 113
e 60 116
e 60 118
e 60 120
e 60 128
e 60 130
e 60 133
e 60 134
e 60 141
e 60 144
e 60 145
e 60 146
e 60 149
e 60 150
e 61 68
e 61 75
e 61 80
e 61 82
e 61 83
e 61 85
e 61 86
e 61 88
e 61 91
e 61 93
e 61 95
e 61 97
e 61 98
e 61 100
e 61 103
e 61 109
e 61 112
e 61 118
e 61 120
e 61 124
e 61 125
e 61 129
e 61 133
e 61 134
e 61 135
e 61 137
e 61 138
e 61 139
e 61 143
e 61 145
e 61 148
e 61 149
e 62 63
e 62 67
e 62 74
e 62 76
e 62 77
e 62 80
e 62 81
e 62 83
e 62 87
e 62 88
e 62 95
e 62 96
e 62 98
e 62 102
e 62 104
e 62 106
e 62 110
e 62 113
e 62 115
e 62 116
e 62 119
e 62 120
e 62 121
e 62 123
e 62 130
e 62 131
e 62 134
e 62 135
e 62 136
e 62 137
e 62 142
e 62 148
e 63 65
e 63 67
e 63 68
e 63 72
e 63 75
e 63 78
e 63 81
e 63 86
e 63 88
e 63 90
e 63 92
e 63 94
e 63 95
e 63 96
e 63 102
e 63 103
e 63 112
e 63 113
e 63 114
e 63 115
e 63 117
e 63 120
e 63 123
e 63 124
e 63 125
e 63 129
e 63 134
e 63 136
e 63 137
e 63 139
e 63 141
e 63 143
e 63 144
e 63 145
e 63 147
e 64 69
e 64 70
e 64 71
e 64 72
e 64 74
e 64 76
e 64 77
e 64 79
e 64 80
e 64 83
e 64 86
e 64 88
e 64 89
e 64 92
e 64 94
e 64 95
e 64 96
e 64 99
e 64 102
e 64 104
e 64 105
e 64 106
e 64 107
e 64 110
e 64 112
e 64 114
e 64 115
e 64 117
e 64 125
e 64 128
e 64 129
e 64 130
e 64 133
e 64 135
e 64 137
e 64 141
e 64 142
e 64 146
e 64 147
e 64 149
e 64 150
e 65 66
e 65 71
e 65 74
e 65 76
e 65 78
e 65 81
e 65 82
e 65 85
e 65 94
e 65 96
e 65 97
e 65 104
e 65 109
e 65 111
e 65 114
e 65 115
e 65 116
e 65 121
e 65 125
e 65 126
e 65 127
e 65 128
e 65 129
e 65 133
e 65 136
e 65 138
e 65 141
e 65 143
e 65 144
e 65 145
e 65 147
e 65 148
e 65 149
e 65 150
e 66 72
e 66 77
e 66 79
e 66 81
e 66 83
e 66 84
e 66 85
e 66 86
e 66 91
e 66 95
e 66 97
e 66 98
e 66 99
e 66 105
e 66 106
e 66 109
e 66 110
e 66 112
e 66 115
e 66 117
e 66 119
e 66 120
e 66 126
e 66 127
e 66 130
e 66 131
e 66 135
e 66 139
e 66 141
e 66 143
e 66 149
e 66 150
e 67 68
e 67 70
e 67 72
e 67 74
e 67 77
e 67 78
e 67 81
e 67 82
e 67 87
e 67 89
e 67 91
e 67 93
e 67 95
e 67 98
e 67 99
e 67 100
e 67 101
e 67 107
e 67 108
e 67 119
e 67 121
e 67 122
e 67 129
e 67 133
e 67 138
e 67 141
e 67 142
e 67 143
e 67 144
e 67 145
e 67 146
e 67 147
e 67 149
e 68 70
e 68 73
e 68 74
e 68 76
e 68 77
e 68 78
e 68 79
e 68 84
e 68 85
e 68 86
e 68 87
e 68 88
e 68 89
e 68 93
e 68 95
e 68 98
e 68 101
e 68 106
e 68 109
e 68 113
e 68 114
e 68 119
e 68 125
e 68 126
e 68 127
e 68 129
e 68 130
e 68 131
e 68 132
e 68 133
e 68 135
e 68 138
e 68 141
e 68 142
e 68 145
e 68 148
e 68 149
e 68 150
e 69 71
e 69 75
e 69 82
e 69 84
e 69 90
e 69 91
e 69 92
e 69 93
e 69 96
e 69 97
e 69 99
e 69 103
e 69 105
e 69 108
e 69 109
e 69 111
e 69 115
e 69 116
e 69 117
e 69 124
e 69 126
e 69 130
e 69 134
e 69 136
e 69 139
e 69 142
e 69 144
e 69 145
e 69 146
e 69 147
e 69 148
e 70 75
e 70 76
e 70 79
e 70 80
e 70 82
e 70 85
e 70 87
e 70 88
e 70 89
e 70 92
e 70 96
e 70 97
e 70 101
e 70 103
e 70 105
e 70 109
e 70 110
e 70 115
e 70 122
e 70 123
e 70 126
e 70 128
e 70 131
e 70 132
e 70 133
e 70 136
e 70 138
e 70 141
e 70 142
e 70 144
e 70 145
e 70 147
e 71 73
e 71 80
e 71 88
e 71 91
e 71 92
e 71 94
e 71 98
e 71 99
e 71 104
e 71 106
e 71 111
e 71 112
e 71 113
e 71 115
e 71 119
e 71 121
e 71 123
e 71 128
e 71 129
e 71 130
e 71 131
e 71 133
e 71 134
e 71 135
e 71 138
e 71 140
e 71 142
e 71 146
e 71 147
e 71 148
e 71 149
e 72 74
e 72 78
e 72 83
e 72 84
e 72 85
e 72 86
e 72 88
e 72 89
e 72 90
e 72 91
e 72 94
e 72 95
e 72 96
e 72 98
e 72 100
e 72 103
e 72 110
e 72 114
e 72 115
e 72 117
e 72 122
e 72 123
e 72 124
e 72 125
e 72 126
e 72 128
e 72 129
e 72 133
e 72 135
e 72 136
e 72 138
e 72 140
e 72 142
e 72 143
e 72 147
e 73 74
e 73 77
e 73 78
e 73 79
e 73 82
e 73 86
e 73 87
e 73 91
e 73 93
e 73 97
e 73 101
e 73 104
e 73 105
e 73 107
e 73 108
e 73 109
e 73 110
e 73 111
e 73 114
e 73 115
e 73 124
e 73 125
e 73 126
e 73 129
e 73 130
e 73 131
e 73 132
e 73 134
e 73 135
e 73 141
e 73 142
e 73 143
e 73 144
e 73 146
e 73 147
e 74 82
e 74 83
e 74 87
e 74 88
e 74 91
e 74 92
e 74 93
e 74 97
e 74 99
e 74 102
e 74 104
e 74 105
e 74 109
e 74 110
e 74 112
e 74 113
e 74 115
e 74 117
e 74 119
e 74 121
e 74 123
e 74 126
e 74 129
e 74 131
e 74 132
e 74 134
e 74 135
e 74 138
e 74 139
e 74 140
e 74 141
e 74 146
e 74 147
e 74 149
e 75 76
e 75 79
e 75 83
e 75 84
e 75 85
e 75 86
e 75 87
e 75 88
e 75 89
e 75 90
e 75 91
e 75 92
e 75 93
e 75 99
e 75 103
e 75 104
e 75 105
e 75 106
e 75 107
e 75 109
e 75 111
e 75 112
e 75 113
e 75 114
e 75 116
e 75 118
e 75 119
e 75 120
e 75 121
e 75 122
e 75 128
e 75 129
e 75 133
e 75 140
e 75 142
e 75 147
e 75 148
e 76 80
e 76 82
e 76 83
e 76 87
e 76 88
e 76 89
e 76 91
e 76 94
e 76 96
e 76 100
e 76 103
e 76 109
e 76 110
e 76 114
e 76 116
e 76 117
e 76 120
e 76 122
e 76 124
e 76 125
e 76 126
e 76 129
e 76 136
e 76 137
e 76 138
e 76 139
e 76 141
e 76 142
e 76 144
e 76 145
e 76 146
e 77 80
e 77 82
e 77 83
e 77 86
e 77 90
e 77 95
e 77 96
e 77 100
e 77 104
e 77 106
e 77 107
e 77 110
e 77 112
e 77 113
e 77 115
e 77 122
e 77 123
e 77 124
e 77 125
e 77 136
e 77 140
e 77 142
e 77 147
e 78 79
e 78 84
e 78 85
e 78 96
e 78 99
e 78 106
e 78 111
e 78 112
e 78 118
e 78 122
e 78 123
e 78 124
e 78 125
e 78 129
e 78 132
e 78 133
e 78 134
e 78 138
e 78 139
e 78 140
e 78 145
e 78 146
e 78 148
e 78 149
e 78 150
e 79 81
e 79 84
e 79 87
e 79 91
e 79 92
e 79 93
e 79 94
e 79 96
e 79 100
e 79 101
e 79 102
e 79 104
e 79 105
e 79 109
e 79 110
e 79 116
e 79 119
e 79 121
e 79 125
e 79 126
e 79 127
e 79 132
e 79 133
e 79 134
e 79 139
e 79 141
e 79 143
e 79 145
e 79 146
e 79 148
e 79 150
e 80 82
e 80 83
e 80 85
e 80 86
e 80 91
e 80 95
e 80 96
e 80 99
e 80 101
e 80 102
e 80 104
e 80 110
e 80 114
e 80 115
e 80 120
e 80 125
e 80 128
e 80 130
e 80 131
e 80 134
e 80 136
e 80 137
e 80 143
e 80 144
e 80 145
e 80 146
e 80 148
e 80 149
e 80 150
e 81 83
e 81 87
e 81 88
e 81 94
e 81 96
e 81 99
e 81 101
e 81 109
e 81 113
e 81 115
e 81 117
e 81 118
e 81 120
e 81 124
e 81 129
e 81 136
e 81 138
e 81 139
e 81 140
e 81 141
e 81 142
e 81 143
e 81 146
e 81 147
e 82 89
e 82 93
e 82 96
e 82 99
e 82 104
e 82 105
e 82 107
e 82 109
e 82 111
e 82 113
e 82 116
e 82 118
e 82 124
e 82 125
e 82 129
e 82 131
e 82 132
e 82 135
e 82 140
e 82 142
e 82 143
e 82 144
e 82 148
e 82 149
e 83 91
e 83 94
e 83 100
e 83 102
e 83 108
e 83 112
e 83 113
e 83 115
e 83 118
e 83 119
e 83 126
e 83 127
e 83 128
e 83 131
e 83 132
e 83 139
e 83 142
e 83 143
e 83 146
e 83 148
e 84 88
e 84 89
e 84 93
e 84 94
e 84 104
e 84 107
e 84 111
e 84 117
e 84 119
e 84 121
e 84 122
e 84 124
e 84 125
e 84 126
e 84 127
e 84 129
e 84 131
e 84 132
e 84 134
e 84 139
e 85 88
e 85 93
e 85 95
e 85 96
e 85 101
e 85 102
e 85 105
e 85 106
e 85 107
e 85 108
e 85 111
e 85 112
e 85 118
e 85 122
e 85 125
e 85 126
e 85 129
e 85 135
e 85 139
e 85 145
e 85 146
e 85 147
e 85 150
e 86 87
e 86 90
e 86 94
e 86 95
e 86 102
e 86 103
e 86 106
e 86 112
e 86 117
e 86 118
e 86 120
e 86 123
e 86 124
e 86 125
e 86 127
e 86 128
e 86 135
e 86 137
e 86 138
e 86 139
e 86 141
e 86 144
e 86 145
e 86 147
e 86 148
e 87 89
e 87 92
e 87 99
e 87 112
e 87 113
e 87 115
e 87 117
e 87 125
e 87 126
e 87 128
e 87 129
e 87 132
e 87 133
e 87 136
e 87 141
e 87 142
e 87 143
e 87 144
e 87 146
e 87 148
e 87 149
e 87 150
e 88 89
e 88 96
e 88 97
e 88 100
e 88 105
e 88 108
e 88 109
e 88 112
e 88 113
e 88 115
e 88 118
e 88 124
e 88 126
e 88 127
e 88 129
e 88 132
e 88 135
e 88 140
e 88 141
e 88 142
e 88 148
e 88 149
e 88 150
e 89 90
e 89 93
e 89 98
e 89 102
e 89 106
e 89 107
e 89 109
e 89 110
e 89 112
e 89 117
e 89 121
e 89 124
e 89 131
e 89 133
e 89 135
e 89 137
e 89 139
e 89 140
e 89 147
e 89 148
e 90 93
e 90 99
e 90 100
e 90 102
e 90 107
e 90 108
e 90 110
e 90 111
e 90 112
e 90 113
e 90 124
e 90 125
e 90 127
e 90 128
e 90 130
e 90 131
e 90 133
e 90 135
e 90 137
e 90 139
e 90 140
e 90 142
e 90 144
e 90 146
e 90 148
e 90 149
e 90 150
e 91 95
e 91 98
e 91 100
e 91 102
e 91 107
e 91 109
e 91 114
e 91 115
e 91 116
e 91 119
e 91 121
e 91 126
e 91 128
e 91 131
e 91 133
e 91 138
e 91 148
e 92 94
e 92 100
e 92 103
e 92 104
e 92 108
e 92 109
e 92 111
e 92 113
e 92 115
e 92 117
e 92 118
e 92 120
e 92 123
e 92 125
e 92 128
e 92 130
e 92 135
e 92 136
e 92 145
e 92 146
e 92 147
e 92 148
e 92 149
e 93 94
e 93 95
e 93 96
e 93 99
e 93 100
e 93 101
e 93 103
e 93 104
e 93 106
e 93 108
e 93 109
e 93 110
e 93 113
e 93 115
e 93 120
e 93 121
e 93 122
e 93 123
e 93 124
e 93 125
e 93 126
e 93 128
e 93 129
e 93 130
e 93 136
e 93 139
e 93 141
e 93 143
e 93 144
e 93 146
e 93 149
e 94 96
e 94 99
e 94 101
e 94 102
e 94 103
e 94 104
e 94 107
e 94 111
e 94 113
e 94 115
e 94 117
e 94 118
e 94 119
e 94 121
e 94 126
e 94 133
e 94 141
e 94 143
e 94 145
e 94 148
e 95 96
e 95 101
e 95 102
e 95 105
e 95 107
e 95 110
e 95 111
e 95 112
e 95 113
e 95 119
e 95 121
e 95 123
e 95 124
e 95 125
e 95 130
e 95 131
e 95 132
e 95 136
e 95 137
e 95 139
e 95 141
e 95 145
e 95 149
e 96 97
e 96 103
e 96 109
e 96 112
e 96 114
e 96 115
e 96 117
e 96 119
e 96 122
e 96 124
e 96 125
e 96 129
e 96 130
e 96 133
e 96 134
e 96 135
e 96 137
e 96 139
e 96 141
e 96 142
e 96 147
e 96 148
e 97 98
e 97 101
e 97 103
e 97 105
e 97 106
e 97 107
e 97 108
e 97 109
e 97 111
e 97 116
e 97 118
e 97 119
e 97 122
e 97 131
e 97 136
e 97 137
e 97 140
e 97 142
e 97 143
e 97 144
e 97 146
e 97 149
e 98 101
e 98 103
e 98 109
e 98 122
e 98 123
e 98 127
e 98 130
e 98 131
e 98 132
e 98 134
e 98 136
e 98 139
e 98 140
e 98 141
e 98 142
e 98 149
e 99 100
e 99 103
e 99 104
e 99 111
e 99 115
e 99 118
e 99 120
e 99 121
e 99 123
e 99 125
e 99 127
e 99 131
e 99 137
e 99 138
e 99 147
e 99 148
e 99 149
e 99 150
e 100 101
e 100 104
e 100 112
e 100 117
e 100 119
e 100 120
e 100 128
e 100 129
e 100 134
e 100 138
e 100 139
e 100 142
e 100 143
e 100 145
e 100 146
e 100 150
e 101 103
e 101 109
e 101 112
e 101 116
e 101 117
e 101 118
e 101 122
e 101 123
e 101 129
e 101 131
e 101 135
e 101 136
e 101 137
e 101 139
e 101 140
e 101 141
e 101 142
e 101 144
e 101 148
e 101 149
e 102 103
e 102 105
e 102 109
e 102 110
e 102 111
e 102 113
e 102 114
e 102 115
e 102 116
e 102 117
e 102 120
e 102 124
e 102 129
e 102 130
e 102 132
e 102 137
e 102 138
e 102 139
e 102 143
e 102 144
e 102 145
e 102 147
e 102 148
e 103 105
e 103 107
e 103 108
e 103 111
e 103 119
e 103 128
e 103 129
e 103 131
e 103 136
e 103 141
e 103 146
e 103 148
e 103 149
e 103 150
e 104 110
e 104 114
e 104 116
e 104 119
e 104 120
e 104 123
e 104 129
e 104 130
e 104 132
e 104 134
e 104 140
e 104 141
e 104 144
e 104 146
e 104 148
e 104 149
e 105 107
e 105 109
e 105 110
e 105 116
e 105 119
e 105 121
e 105 123
e 105 124
e 105 125
e 105 126
e 105 127
e 105 130
e 105 132
e 105 133
e 105 134
e 105 137
e 105 138
e 105 141
e 106 108
e 106 109
e 106 114
e 106 119
e 106 123
e 106 124
e 106 126
e 106 127
e 106 128
e 106 129
e 106 130
e 106 132
e 106 133
e 106 134
e 106 138
e 106 140
e 106 141
e 106 144
e 106 145
e 106 147
e 106 148
e 106 150
e 107 110
e 107 112
e 107 117
e 107 121
e 107 123
e 107 125
e 107 126
e 107 128
e 107 129
e 107 130
e 107 133
e 107 136
e 107 137
e 107 138
e 107 141
e 107 143
e 107 146
e 107 147
e 108 110
e 108 112
e 108 117
e 108 120
e 108 123
e 108 124
e 108 125
e 108 130
e 108 132
e 108 133
e 108 134
e 108 146
e 108 148
e 109 112
e 109 113
e 109 117
e 109 119
e 109 120
e 109 121
e 109 126
e 109 131
e 109 132
e 109 135
e 109 136
e 109 137
e 109 147
e 109 148
e 110 113
e 110 115
e 110 116
e 110 117
e 110 121
e 110 125
e 110 127
e 110 128
e 110 130
e 110 132
e 110 133
e 110 136
e 110 137
e 110 139
e 110 140
e 111 112
e 111 114
e 111 115
e 111 116
e 111 118
e 111 122
e 111 125
e 111 128
e 111 131
e 111 136
e 111 140
e 111 143
e 111 145
e 111 146
e 111 147
e 112 115
e 112 116
e 112 120
e 112 122
e 112 123
e 112 130
e 112 133
e 112 135
e 112 139
e 112 140
e 112 141
e 112 142
e 112 143
e 112 145
e 112 146
e 112 150
e 113 114
e 113 116
e 113 117
e 113 120
e 113 121
e 113 124
e 113 129
e 113 131
e 113 139
e 113 141
e 113 146
e 113 147
e 113 149
e 114 116
e 114 117
e 114 120
e 114 121
e 114 124
e 114 134
e 114 136
e 114 138
e 114 143
e 114 144
e 114 149
e 115 117
e 115 119
e 115 121
e 115 122
e 115 123
e 115 124
e 115 125
e 115 130
e 115 131
e 115 132
e 115 134
e 115 135
e 115 137
e 115 138
e 115 140
e 115 141
e 115 142
e 115 144
e 115 147
e 115 149
e 116 118
e 116 126
e 116 128
e 116 129
e 116 130
e 116 131
e 116 133
e 116 135
e 116 137
e 116 138
e 116 140
e 116 143
e 117 118
e 117 120
e 117 121
e 117 122
e 117 124
e 117 128
e 117 132
e 117 134
e 117 138
e 117 141
e 117 144
e 117 145
e 117 147
e 118 119
e 118 120
e 118 122
e 118 126
e 118 127
e 118 130
e 118 131
e 118 132
e 118 138
e 118 139
e 118 145
e 118 146
e 118 150
e 119 124
e 119 127
e 119 130
e 119 132
e 119 135
e 119 136
e 119 137
e 119 138
e 119 140
e 119 143
e 119 147
e 119 148
e 119 149
e 120 127
e 120 128
e 120 129
e 120 131
e 120 132
e 120 134
e 120 138
e 120 140
e 120 142
e 120 144
e 120 145
e 120 146
e 121 126
e 121 128
e 121 130
e 121 137
e 121 139
e 121 144
e 121 145
e 121 148
e 121 149
e 122 124
e 122 129
e 122 132
e 122 134
e 122 137
e 122 138
e 122 139
e 122 146
e 122 148
e 122 150
e 123 126
e 123 127
e 123 128
e 123 131
e 123 132
e 123 133
e 123 134
e 123 136
e 123 138
e 123 140
e 123 142
e 123 143
e 123 147
e 123 149
e 123 150
e 124 127
e 124 133
e 124 137
e 124 138
e 124 139
e 124 141
e 124 143
e 124 146
e 124 147
e 124 149
e 124 150
e 125 126
e 125 129
e 125 131
e 125 132
e 125 134
e 125 137
e 125 141
e 125 142
e 125 145
e 125 148
e 125 149
e 126 127
e 126 132
e 126 135
e 126 139
e 126 141
e 126 143
e 126 144
e 126 149
e 127 128
e 127 129
e 127 133
e 127 134
e 127 135
e 127 137
e 127 138
e 127 139
e 127 140
e 127 141
e 127 145
e 127 147
e 127 148
e 127 150
e 128 129
e 128 131
e 128 132
e 128 137
e 128 141
e 128 145
e 128 146
e 128 147
e 129 134
e 129 136
e 129 137
e 129 139
e 129 140
e 129 141
e 129 142
e 129 144
e 129 145
e 129 146
e 129 148
e 129 150
e 130 131
e 130 132
e 130 138
e 130 141
e 130 142
e 130 143
e 130 144
e 130 147
e 130 148
e 130 149
e 130 150
e 131 134
e 131 135
e 131 137
e 131 142
e 131 145
e 131 146
e 131 149
e 132 135
e 132 136
e 132 139
e 132 141
e 132 142
e 132 146
e 132 148
e 132 150
e 133 135
e 133 136
e 133 137
e 133 138
e 133 141
e 133 146
e 134 137
e 134 139
e 134 140
e 134 141
e 134 145
e 134 148
e 135 136
e 135 139
e 135 141
e 135 142
e 135 143
e 135 146
e 135 147
e 135 148
e 135 149
e 135 150
e 136 140
e 136 143
e 136 148
e 136 150
e 137 141
e 137 142
e 137 143
e 137 144
e 137 146
e 137 149
e 138 139
e 138 140
e 138 141
e 138 142
e 138 144
e 138 145
e 138 146
e 138 149
e 138 150
e 139 141
e 139 142
e 139 145
e 139 148
e 140 141
e 140 142
e 140 147
e 141 142
e 141 143
e 141 145
e 141 147
e 142 143
e 142 148
e 144 145
e 144 146
e 144 150
e 145 148
e 145 149
e 146 148
e 146 150
e 147 149
e 147 150
